p cnf 15 20
15 8 -11 -14 -12 -2 0
15 11 2 -9 -5 -6 8 0
8 -5 -13 -2 10 14 -4 0
6 11 14 -8 -12 -5 0
-12 6 4 1 0
-3 -12 -6 11 -1 4 2 -15 0
7 8 4 1 -6 -11 -15 0
8 13 -9 6 12 0
15 8 12 -13 11 0
3 -11 7 -14 5 1 -8 -15 0
-13 2 1 8 -4 7 -15 0
-13 11 -6 -15 -14 9 -1 0
-12 -15 -3 -14 -11 -7 -4 -8 0
-7 -1 -10 14 -8 3 0
-6 -11 -7 -15 2 1 -5 -12 0
-13 2 -8 0
2 1 5 -10 7 0
3 -13 -11 12 -10 6 0
1 0 -1 0
